(set-info :smt-lib-version 2.6)
(set-logic QF_LIA)
(set-info :source |
Generated by: Nicolas Amat, Bernard Berthomieu, Silvano Dal Zilio, Didier Le Botlan
Generated on: 2022-03-07
Generator: SMPT
Application: Reachability query on the instance Eratosthenes-PT-500 from the Model Checking Contest 2021 using the SMPT model-checker
Target solver: z3
Publications: https://doi.org/10.1007/978-3-030-76983-3_9, http://mcc.lip6.fr/2021/results.php
|)
(set-info :license "https://creativecommons.org/licenses/by/4.0/")
(set-info :category "industrial")
(set-info :status sat)

(declare-const p10 Int)
(assert (>= p10 0))
(declare-const p2 Int)
(assert (>= p2 0))
(declare-const p5 Int)
(assert (>= p5 0))
(declare-const p100 Int)
(assert (>= p100 0))
(declare-const p20 Int)
(assert (>= p20 0))
(declare-const p25 Int)
(assert (>= p25 0))
(declare-const p4 Int)
(assert (>= p4 0))
(declare-const p50 Int)
(assert (>= p50 0))
(declare-const p102 Int)
(assert (>= p102 0))
(declare-const p17 Int)
(assert (>= p17 0))
(declare-const p3 Int)
(assert (>= p3 0))
(declare-const p34 Int)
(assert (>= p34 0))
(declare-const p51 Int)
(assert (>= p51 0))
(declare-const p6 Int)
(assert (>= p6 0))
(declare-const p104 Int)
(assert (>= p104 0))
(declare-const p13 Int)
(assert (>= p13 0))
(declare-const p26 Int)
(assert (>= p26 0))
(declare-const p52 Int)
(assert (>= p52 0))
(declare-const p8 Int)
(assert (>= p8 0))
(declare-const p105 Int)
(assert (>= p105 0))
(declare-const p15 Int)
(assert (>= p15 0))
(declare-const p21 Int)
(assert (>= p21 0))
(declare-const p35 Int)
(assert (>= p35 0))
(declare-const p7 Int)
(assert (>= p7 0))
(declare-const p106 Int)
(assert (>= p106 0))
(declare-const p53 Int)
(assert (>= p53 0))
(declare-const p108 Int)
(assert (>= p108 0))
(declare-const p12 Int)
(assert (>= p12 0))
(declare-const p18 Int)
(assert (>= p18 0))
(declare-const p27 Int)
(assert (>= p27 0))
(declare-const p36 Int)
(assert (>= p36 0))
(declare-const p54 Int)
(assert (>= p54 0))
(declare-const p9 Int)
(assert (>= p9 0))
(declare-const p110 Int)
(assert (>= p110 0))
(declare-const p11 Int)
(assert (>= p11 0))
(declare-const p22 Int)
(assert (>= p22 0))
(declare-const p55 Int)
(assert (>= p55 0))
(declare-const p111 Int)
(assert (>= p111 0))
(declare-const p37 Int)
(assert (>= p37 0))
(declare-const p112 Int)
(assert (>= p112 0))
(declare-const p14 Int)
(assert (>= p14 0))
(declare-const p16 Int)
(assert (>= p16 0))
(declare-const p28 Int)
(assert (>= p28 0))
(declare-const p56 Int)
(assert (>= p56 0))
(declare-const p114 Int)
(assert (>= p114 0))
(declare-const p19 Int)
(assert (>= p19 0))
(declare-const p38 Int)
(assert (>= p38 0))
(declare-const p57 Int)
(assert (>= p57 0))
(declare-const p115 Int)
(assert (>= p115 0))
(declare-const p23 Int)
(assert (>= p23 0))
(declare-const p116 Int)
(assert (>= p116 0))
(declare-const p29 Int)
(assert (>= p29 0))
(declare-const p58 Int)
(assert (>= p58 0))
(declare-const p117 Int)
(assert (>= p117 0))
(declare-const p39 Int)
(assert (>= p39 0))
(declare-const p118 Int)
(assert (>= p118 0))
(declare-const p59 Int)
(assert (>= p59 0))
(declare-const p119 Int)
(assert (>= p119 0))
(declare-const p120 Int)
(assert (>= p120 0))
(declare-const p24 Int)
(assert (>= p24 0))
(declare-const p30 Int)
(assert (>= p30 0))
(declare-const p40 Int)
(assert (>= p40 0))
(declare-const p60 Int)
(assert (>= p60 0))
(declare-const p121 Int)
(assert (>= p121 0))
(declare-const p122 Int)
(assert (>= p122 0))
(declare-const p61 Int)
(assert (>= p61 0))
(declare-const p123 Int)
(assert (>= p123 0))
(declare-const p41 Int)
(assert (>= p41 0))
(declare-const p124 Int)
(assert (>= p124 0))
(declare-const p31 Int)
(assert (>= p31 0))
(declare-const p62 Int)
(assert (>= p62 0))
(declare-const p125 Int)
(assert (>= p125 0))
(declare-const p126 Int)
(assert (>= p126 0))
(declare-const p42 Int)
(assert (>= p42 0))
(declare-const p63 Int)
(assert (>= p63 0))
(declare-const p128 Int)
(assert (>= p128 0))
(declare-const p32 Int)
(assert (>= p32 0))
(declare-const p64 Int)
(assert (>= p64 0))
(declare-const p129 Int)
(assert (>= p129 0))
(declare-const p43 Int)
(assert (>= p43 0))
(declare-const p130 Int)
(assert (>= p130 0))
(declare-const p65 Int)
(assert (>= p65 0))
(declare-const p132 Int)
(assert (>= p132 0))
(declare-const p33 Int)
(assert (>= p33 0))
(declare-const p44 Int)
(assert (>= p44 0))
(declare-const p66 Int)
(assert (>= p66 0))
(declare-const p133 Int)
(assert (>= p133 0))
(declare-const p134 Int)
(assert (>= p134 0))
(declare-const p67 Int)
(assert (>= p67 0))
(declare-const p135 Int)
(assert (>= p135 0))
(declare-const p45 Int)
(assert (>= p45 0))
(declare-const p136 Int)
(assert (>= p136 0))
(declare-const p68 Int)
(assert (>= p68 0))
(declare-const p138 Int)
(assert (>= p138 0))
(declare-const p46 Int)
(assert (>= p46 0))
(declare-const p69 Int)
(assert (>= p69 0))
(declare-const p140 Int)
(assert (>= p140 0))
(declare-const p70 Int)
(assert (>= p70 0))
(declare-const p141 Int)
(assert (>= p141 0))
(declare-const p47 Int)
(assert (>= p47 0))
(declare-const p142 Int)
(assert (>= p142 0))
(declare-const p71 Int)
(assert (>= p71 0))
(declare-const p143 Int)
(assert (>= p143 0))
(declare-const p144 Int)
(assert (>= p144 0))
(declare-const p48 Int)
(assert (>= p48 0))
(declare-const p72 Int)
(assert (>= p72 0))
(declare-const p145 Int)
(assert (>= p145 0))
(declare-const p146 Int)
(assert (>= p146 0))
(declare-const p73 Int)
(assert (>= p73 0))
(declare-const p147 Int)
(assert (>= p147 0))
(declare-const p49 Int)
(assert (>= p49 0))
(declare-const p148 Int)
(assert (>= p148 0))
(declare-const p74 Int)
(assert (>= p74 0))
(declare-const p150 Int)
(assert (>= p150 0))
(declare-const p75 Int)
(assert (>= p75 0))
(declare-const p152 Int)
(assert (>= p152 0))
(declare-const p76 Int)
(assert (>= p76 0))
(declare-const p153 Int)
(assert (>= p153 0))
(declare-const p154 Int)
(assert (>= p154 0))
(declare-const p77 Int)
(assert (>= p77 0))
(declare-const p155 Int)
(assert (>= p155 0))
(declare-const p156 Int)
(assert (>= p156 0))
(declare-const p78 Int)
(assert (>= p78 0))
(declare-const p158 Int)
(assert (>= p158 0))
(declare-const p79 Int)
(assert (>= p79 0))
(declare-const p159 Int)
(assert (>= p159 0))
(declare-const p160 Int)
(assert (>= p160 0))
(declare-const p80 Int)
(assert (>= p80 0))
(declare-const p161 Int)
(assert (>= p161 0))
(declare-const p162 Int)
(assert (>= p162 0))
(declare-const p81 Int)
(assert (>= p81 0))
(declare-const p164 Int)
(assert (>= p164 0))
(declare-const p82 Int)
(assert (>= p82 0))
(declare-const p165 Int)
(assert (>= p165 0))
(declare-const p166 Int)
(assert (>= p166 0))
(declare-const p83 Int)
(assert (>= p83 0))
(declare-const p168 Int)
(assert (>= p168 0))
(declare-const p84 Int)
(assert (>= p84 0))
(declare-const p169 Int)
(assert (>= p169 0))
(declare-const p170 Int)
(assert (>= p170 0))
(declare-const p85 Int)
(assert (>= p85 0))
(declare-const p171 Int)
(assert (>= p171 0))
(declare-const p172 Int)
(assert (>= p172 0))
(declare-const p86 Int)
(assert (>= p86 0))
(declare-const p174 Int)
(assert (>= p174 0))
(declare-const p87 Int)
(assert (>= p87 0))
(declare-const p175 Int)
(assert (>= p175 0))
(declare-const p176 Int)
(assert (>= p176 0))
(declare-const p88 Int)
(assert (>= p88 0))
(declare-const p177 Int)
(assert (>= p177 0))
(declare-const p178 Int)
(assert (>= p178 0))
(declare-const p89 Int)
(assert (>= p89 0))
(declare-const p180 Int)
(assert (>= p180 0))
(declare-const p90 Int)
(assert (>= p90 0))
(declare-const p182 Int)
(assert (>= p182 0))
(declare-const p91 Int)
(assert (>= p91 0))
(declare-const p183 Int)
(assert (>= p183 0))
(declare-const p184 Int)
(assert (>= p184 0))
(declare-const p92 Int)
(assert (>= p92 0))
(declare-const p185 Int)
(assert (>= p185 0))
(declare-const p186 Int)
(assert (>= p186 0))
(declare-const p93 Int)
(assert (>= p93 0))
(declare-const p187 Int)
(assert (>= p187 0))
(declare-const p188 Int)
(assert (>= p188 0))
(declare-const p94 Int)
(assert (>= p94 0))
(declare-const p189 Int)
(assert (>= p189 0))
(declare-const p190 Int)
(assert (>= p190 0))
(declare-const p95 Int)
(assert (>= p95 0))
(declare-const p192 Int)
(assert (>= p192 0))
(declare-const p96 Int)
(assert (>= p96 0))
(declare-const p194 Int)
(assert (>= p194 0))
(declare-const p97 Int)
(assert (>= p97 0))
(declare-const p195 Int)
(assert (>= p195 0))
(declare-const p196 Int)
(assert (>= p196 0))
(declare-const p98 Int)
(assert (>= p98 0))
(declare-const p198 Int)
(assert (>= p198 0))
(declare-const p99 Int)
(assert (>= p99 0))
(declare-const p200 Int)
(assert (>= p200 0))
(declare-const p201 Int)
(assert (>= p201 0))
(declare-const p101 Int)
(assert (>= p101 0))
(declare-const p202 Int)
(assert (>= p202 0))
(declare-const p203 Int)
(assert (>= p203 0))
(declare-const p204 Int)
(assert (>= p204 0))
(declare-const p205 Int)
(assert (>= p205 0))
(declare-const p103 Int)
(assert (>= p103 0))
(declare-const p206 Int)
(assert (>= p206 0))
(declare-const p207 Int)
(assert (>= p207 0))
(declare-const p208 Int)
(assert (>= p208 0))
(declare-const p209 Int)
(assert (>= p209 0))
(declare-const p210 Int)
(assert (>= p210 0))
(declare-const p212 Int)
(assert (>= p212 0))
(declare-const p213 Int)
(assert (>= p213 0))
(declare-const p107 Int)
(assert (>= p107 0))
(declare-const p214 Int)
(assert (>= p214 0))
(declare-const p215 Int)
(assert (>= p215 0))
(declare-const p216 Int)
(assert (>= p216 0))
(declare-const p217 Int)
(assert (>= p217 0))
(declare-const p109 Int)
(assert (>= p109 0))
(declare-const p218 Int)
(assert (>= p218 0))
(declare-const p219 Int)
(assert (>= p219 0))
(declare-const p220 Int)
(assert (>= p220 0))
(declare-const p221 Int)
(assert (>= p221 0))
(declare-const p222 Int)
(assert (>= p222 0))
(declare-const p224 Int)
(assert (>= p224 0))
(declare-const p225 Int)
(assert (>= p225 0))
(declare-const p113 Int)
(assert (>= p113 0))
(declare-const p226 Int)
(assert (>= p226 0))
(declare-const p228 Int)
(assert (>= p228 0))
(declare-const p230 Int)
(assert (>= p230 0))
(declare-const p231 Int)
(assert (>= p231 0))
(declare-const p232 Int)
(assert (>= p232 0))
(declare-const p234 Int)
(assert (>= p234 0))
(declare-const p235 Int)
(assert (>= p235 0))
(declare-const p236 Int)
(assert (>= p236 0))
(declare-const p237 Int)
(assert (>= p237 0))
(declare-const p238 Int)
(assert (>= p238 0))
(declare-const p240 Int)
(assert (>= p240 0))
(declare-const p242 Int)
(assert (>= p242 0))
(declare-const p243 Int)
(assert (>= p243 0))
(declare-const p244 Int)
(assert (>= p244 0))
(declare-const p245 Int)
(assert (>= p245 0))
(declare-const p246 Int)
(assert (>= p246 0))
(declare-const p247 Int)
(assert (>= p247 0))
(declare-const p248 Int)
(assert (>= p248 0))
(declare-const p249 Int)
(assert (>= p249 0))
(declare-const p250 Int)
(assert (>= p250 0))
(declare-const p252 Int)
(assert (>= p252 0))
(declare-const p253 Int)
(assert (>= p253 0))
(declare-const p127 Int)
(assert (>= p127 0))
(declare-const p254 Int)
(assert (>= p254 0))
(declare-const p255 Int)
(assert (>= p255 0))
(declare-const p256 Int)
(assert (>= p256 0))
(declare-const p258 Int)
(assert (>= p258 0))
(declare-const p259 Int)
(assert (>= p259 0))
(declare-const p260 Int)
(assert (>= p260 0))
(declare-const p261 Int)
(assert (>= p261 0))
(declare-const p131 Int)
(assert (>= p131 0))
(declare-const p262 Int)
(assert (>= p262 0))
(declare-const p264 Int)
(assert (>= p264 0))
(declare-const p265 Int)
(assert (>= p265 0))
(declare-const p266 Int)
(assert (>= p266 0))
(declare-const p267 Int)
(assert (>= p267 0))
(declare-const p268 Int)
(assert (>= p268 0))
(declare-const p270 Int)
(assert (>= p270 0))
(declare-const p272 Int)
(assert (>= p272 0))
(declare-const p273 Int)
(assert (>= p273 0))
(declare-const p137 Int)
(assert (>= p137 0))
(declare-const p274 Int)
(assert (>= p274 0))
(declare-const p275 Int)
(assert (>= p275 0))
(declare-const p276 Int)
(assert (>= p276 0))
(declare-const p139 Int)
(assert (>= p139 0))
(declare-const p278 Int)
(assert (>= p278 0))
(declare-const p279 Int)
(assert (>= p279 0))
(declare-const p280 Int)
(assert (>= p280 0))
(declare-const p282 Int)
(assert (>= p282 0))
(declare-const p284 Int)
(assert (>= p284 0))
(declare-const p285 Int)
(assert (>= p285 0))
(declare-const p286 Int)
(assert (>= p286 0))
(declare-const p287 Int)
(assert (>= p287 0))
(declare-const p288 Int)
(assert (>= p288 0))
(declare-const p289 Int)
(assert (>= p289 0))
(declare-const p290 Int)
(assert (>= p290 0))
(declare-const p291 Int)
(assert (>= p291 0))
(declare-const p292 Int)
(assert (>= p292 0))
(declare-const p294 Int)
(assert (>= p294 0))
(declare-const p295 Int)
(assert (>= p295 0))
(declare-const p296 Int)
(assert (>= p296 0))
(declare-const p297 Int)
(assert (>= p297 0))
(declare-const p149 Int)
(assert (>= p149 0))
(declare-const p298 Int)
(assert (>= p298 0))
(declare-const p299 Int)
(assert (>= p299 0))
(declare-const p300 Int)
(assert (>= p300 0))
(declare-const p301 Int)
(assert (>= p301 0))
(declare-const p151 Int)
(assert (>= p151 0))
(declare-const p302 Int)
(assert (>= p302 0))
(declare-const p303 Int)
(assert (>= p303 0))
(declare-const p304 Int)
(assert (>= p304 0))
(declare-const p305 Int)
(assert (>= p305 0))
(declare-const p306 Int)
(assert (>= p306 0))
(declare-const p308 Int)
(assert (>= p308 0))
(declare-const p309 Int)
(assert (>= p309 0))
(declare-const p310 Int)
(assert (>= p310 0))
(declare-const p312 Int)
(assert (>= p312 0))
(declare-const p157 Int)
(assert (>= p157 0))
(declare-const p314 Int)
(assert (>= p314 0))
(declare-const p315 Int)
(assert (>= p315 0))
(declare-const p316 Int)
(assert (>= p316 0))
(declare-const p318 Int)
(assert (>= p318 0))
(declare-const p319 Int)
(assert (>= p319 0))
(declare-const p320 Int)
(assert (>= p320 0))
(declare-const p321 Int)
(assert (>= p321 0))
(declare-const p322 Int)
(assert (>= p322 0))
(declare-const p323 Int)
(assert (>= p323 0))
(declare-const p324 Int)
(assert (>= p324 0))
(declare-const p325 Int)
(assert (>= p325 0))
(declare-const p163 Int)
(assert (>= p163 0))
(declare-const p326 Int)
(assert (>= p326 0))
(declare-const p327 Int)
(assert (>= p327 0))
(declare-const p328 Int)
(assert (>= p328 0))
(declare-const p329 Int)
(assert (>= p329 0))
(declare-const p330 Int)
(assert (>= p330 0))
(declare-const p332 Int)
(assert (>= p332 0))
(declare-const p333 Int)
(assert (>= p333 0))
(declare-const p167 Int)
(assert (>= p167 0))
(declare-const p334 Int)
(assert (>= p334 0))
(declare-const p335 Int)
(assert (>= p335 0))
(declare-const p336 Int)
(assert (>= p336 0))
(declare-const p338 Int)
(assert (>= p338 0))
(declare-const p339 Int)
(assert (>= p339 0))
(declare-const p340 Int)
(assert (>= p340 0))
(declare-const p341 Int)
(assert (>= p341 0))
(declare-const p342 Int)
(assert (>= p342 0))
(declare-const p343 Int)
(assert (>= p343 0))
(declare-const p344 Int)
(assert (>= p344 0))
(declare-const p345 Int)
(assert (>= p345 0))
(declare-const p173 Int)
(assert (>= p173 0))
(declare-const p346 Int)
(assert (>= p346 0))
(declare-const p348 Int)
(assert (>= p348 0))
(declare-const p350 Int)
(assert (>= p350 0))
(declare-const p351 Int)
(assert (>= p351 0))
(declare-const p352 Int)
(assert (>= p352 0))
(declare-const p354 Int)
(assert (>= p354 0))
(declare-const p355 Int)
(assert (>= p355 0))
(declare-const p356 Int)
(assert (>= p356 0))
(declare-const p357 Int)
(assert (>= p357 0))
(declare-const p179 Int)
(assert (>= p179 0))
(declare-const p358 Int)
(assert (>= p358 0))
(declare-const p360 Int)
(assert (>= p360 0))
(declare-const p361 Int)
(assert (>= p361 0))
(declare-const p181 Int)
(assert (>= p181 0))
(declare-const p362 Int)
(assert (>= p362 0))
(declare-const p363 Int)
(assert (>= p363 0))
(declare-const p364 Int)
(assert (>= p364 0))
(declare-const p365 Int)
(assert (>= p365 0))
(declare-const p366 Int)
(assert (>= p366 0))
(declare-const p368 Int)
(assert (>= p368 0))
(declare-const p369 Int)
(assert (>= p369 0))
(declare-const p370 Int)
(assert (>= p370 0))
(declare-const p371 Int)
(assert (>= p371 0))
(declare-const p372 Int)
(assert (>= p372 0))
(declare-const p374 Int)
(assert (>= p374 0))
(declare-const p375 Int)
(assert (>= p375 0))
(declare-const p376 Int)
(assert (>= p376 0))
(declare-const p377 Int)
(assert (>= p377 0))
(declare-const p378 Int)
(assert (>= p378 0))
(declare-const p380 Int)
(assert (>= p380 0))
(declare-const p381 Int)
(assert (>= p381 0))
(declare-const p191 Int)
(assert (>= p191 0))
(declare-const p382 Int)
(assert (>= p382 0))
(declare-const p384 Int)
(assert (>= p384 0))
(declare-const p385 Int)
(assert (>= p385 0))
(declare-const p193 Int)
(assert (>= p193 0))
(declare-const p386 Int)
(assert (>= p386 0))
(declare-const p387 Int)
(assert (>= p387 0))
(declare-const p388 Int)
(assert (>= p388 0))
(declare-const p390 Int)
(assert (>= p390 0))
(declare-const p391 Int)
(assert (>= p391 0))
(declare-const p392 Int)
(assert (>= p392 0))
(declare-const p393 Int)
(assert (>= p393 0))
(declare-const p197 Int)
(assert (>= p197 0))
(declare-const p394 Int)
(assert (>= p394 0))
(declare-const p395 Int)
(assert (>= p395 0))
(declare-const p396 Int)
(assert (>= p396 0))
(declare-const p199 Int)
(assert (>= p199 0))
(declare-const p398 Int)
(assert (>= p398 0))
(declare-const p399 Int)
(assert (>= p399 0))
(declare-const p400 Int)
(assert (>= p400 0))
(declare-const p402 Int)
(assert (>= p402 0))
(declare-const p403 Int)
(assert (>= p403 0))
(declare-const p404 Int)
(assert (>= p404 0))
(declare-const p405 Int)
(assert (>= p405 0))
(declare-const p406 Int)
(assert (>= p406 0))
(declare-const p407 Int)
(assert (>= p407 0))
(declare-const p408 Int)
(assert (>= p408 0))
(declare-const p410 Int)
(assert (>= p410 0))
(declare-const p411 Int)
(assert (>= p411 0))
(declare-const p412 Int)
(assert (>= p412 0))
(declare-const p413 Int)
(assert (>= p413 0))
(declare-const p414 Int)
(assert (>= p414 0))
(declare-const p415 Int)
(assert (>= p415 0))
(declare-const p416 Int)
(assert (>= p416 0))
(declare-const p417 Int)
(assert (>= p417 0))
(declare-const p418 Int)
(assert (>= p418 0))
(declare-const p420 Int)
(assert (>= p420 0))
(declare-const p422 Int)
(assert (>= p422 0))
(declare-const p211 Int)
(assert (>= p211 0))
(declare-const p423 Int)
(assert (>= p423 0))
(declare-const p424 Int)
(assert (>= p424 0))
(declare-const p425 Int)
(assert (>= p425 0))
(declare-const p426 Int)
(assert (>= p426 0))
(declare-const p427 Int)
(assert (>= p427 0))
(declare-const p428 Int)
(assert (>= p428 0))
(declare-const p429 Int)
(assert (>= p429 0))
(declare-const p430 Int)
(assert (>= p430 0))
(declare-const p432 Int)
(assert (>= p432 0))
(declare-const p434 Int)
(assert (>= p434 0))
(declare-const p435 Int)
(assert (>= p435 0))
(declare-const p436 Int)
(assert (>= p436 0))
(declare-const p437 Int)
(assert (>= p437 0))
(declare-const p438 Int)
(assert (>= p438 0))
(declare-const p440 Int)
(assert (>= p440 0))
(declare-const p441 Int)
(assert (>= p441 0))
(declare-const p442 Int)
(assert (>= p442 0))
(declare-const p444 Int)
(assert (>= p444 0))
(declare-const p445 Int)
(assert (>= p445 0))
(declare-const p446 Int)
(assert (>= p446 0))
(declare-const p223 Int)
(assert (>= p223 0))
(declare-const p447 Int)
(assert (>= p447 0))
(declare-const p448 Int)
(assert (>= p448 0))
(declare-const p450 Int)
(assert (>= p450 0))
(declare-const p451 Int)
(assert (>= p451 0))
(declare-const p452 Int)
(assert (>= p452 0))
(declare-const p453 Int)
(assert (>= p453 0))
(declare-const p454 Int)
(assert (>= p454 0))
(declare-const p227 Int)
(assert (>= p227 0))
(declare-const p455 Int)
(assert (>= p455 0))
(declare-const p456 Int)
(assert (>= p456 0))
(declare-const p458 Int)
(assert (>= p458 0))
(declare-const p229 Int)
(assert (>= p229 0))
(declare-const p459 Int)
(assert (>= p459 0))
(declare-const p460 Int)
(assert (>= p460 0))
(declare-const p462 Int)
(assert (>= p462 0))
(declare-const p464 Int)
(assert (>= p464 0))
(declare-const p465 Int)
(assert (>= p465 0))
(declare-const p466 Int)
(assert (>= p466 0))
(declare-const p233 Int)
(assert (>= p233 0))
(declare-const p468 Int)
(assert (>= p468 0))
(declare-const p469 Int)
(assert (>= p469 0))
(declare-const p470 Int)
(assert (>= p470 0))
(declare-const p471 Int)
(assert (>= p471 0))
(declare-const p472 Int)
(assert (>= p472 0))
(declare-const p473 Int)
(assert (>= p473 0))
(declare-const p474 Int)
(assert (>= p474 0))
(declare-const p475 Int)
(assert (>= p475 0))
(declare-const p476 Int)
(assert (>= p476 0))
(declare-const p477 Int)
(assert (>= p477 0))
(declare-const p478 Int)
(assert (>= p478 0))
(declare-const p239 Int)
(assert (>= p239 0))
(declare-const p480 Int)
(assert (>= p480 0))
(declare-const p481 Int)
(assert (>= p481 0))
(declare-const p482 Int)
(assert (>= p482 0))
(declare-const p241 Int)
(assert (>= p241 0))
(declare-const p483 Int)
(assert (>= p483 0))
(declare-const p484 Int)
(assert (>= p484 0))
(declare-const p485 Int)
(assert (>= p485 0))
(declare-const p486 Int)
(assert (>= p486 0))
(declare-const p488 Int)
(assert (>= p488 0))
(declare-const p489 Int)
(assert (>= p489 0))
(declare-const p490 Int)
(assert (>= p490 0))
(declare-const p492 Int)
(assert (>= p492 0))
(declare-const p493 Int)
(assert (>= p493 0))
(declare-const p494 Int)
(assert (>= p494 0))
(declare-const p495 Int)
(assert (>= p495 0))
(declare-const p496 Int)
(assert (>= p496 0))
(declare-const p497 Int)
(assert (>= p497 0))
(declare-const p498 Int)
(assert (>= p498 0))
(declare-const p500 Int)
(assert (>= p500 0))
(declare-const p251 Int)
(assert (>= p251 0))
(declare-const p257 Int)
(assert (>= p257 0))
(declare-const p263 Int)
(assert (>= p263 0))
(declare-const p269 Int)
(assert (>= p269 0))
(declare-const p271 Int)
(assert (>= p271 0))
(declare-const p277 Int)
(assert (>= p277 0))
(declare-const p281 Int)
(assert (>= p281 0))
(declare-const p283 Int)
(assert (>= p283 0))
(declare-const p293 Int)
(assert (>= p293 0))
(declare-const p307 Int)
(assert (>= p307 0))
(declare-const p311 Int)
(assert (>= p311 0))
(declare-const p313 Int)
(assert (>= p313 0))
(declare-const p317 Int)
(assert (>= p317 0))
(declare-const p331 Int)
(assert (>= p331 0))
(declare-const p337 Int)
(assert (>= p337 0))
(declare-const p347 Int)
(assert (>= p347 0))
(declare-const p349 Int)
(assert (>= p349 0))
(declare-const p353 Int)
(assert (>= p353 0))
(declare-const p359 Int)
(assert (>= p359 0))
(declare-const p367 Int)
(assert (>= p367 0))
(declare-const p373 Int)
(assert (>= p373 0))
(declare-const p379 Int)
(assert (>= p379 0))
(declare-const p383 Int)
(assert (>= p383 0))
(declare-const p389 Int)
(assert (>= p389 0))
(declare-const p397 Int)
(assert (>= p397 0))
(declare-const p401 Int)
(assert (>= p401 0))
(declare-const p409 Int)
(assert (>= p409 0))
(declare-const p419 Int)
(assert (>= p419 0))
(declare-const p421 Int)
(assert (>= p421 0))
(declare-const p431 Int)
(assert (>= p431 0))
(declare-const p433 Int)
(assert (>= p433 0))
(declare-const p439 Int)
(assert (>= p439 0))
(declare-const p443 Int)
(assert (>= p443 0))
(declare-const p449 Int)
(assert (>= p449 0))
(declare-const p457 Int)
(assert (>= p457 0))
(declare-const p461 Int)
(assert (>= p461 0))
(declare-const p463 Int)
(assert (>= p463 0))
(declare-const p467 Int)
(assert (>= p467 0))
(declare-const p479 Int)
(assert (>= p479 0))
(declare-const p487 Int)
(assert (>= p487 0))
(declare-const p491 Int)
(assert (>= p491 0))
(declare-const p499 Int)
(assert (>= p499 0))


(assert (= p101 1))
(assert (= p103 1))
(assert (= p107 1))
(assert (= p109 1))
(assert (= p11 1))
(assert (= p113 1))
(assert (= p127 1))
(assert (= p13 1))
(assert (= p131 1))
(assert (= p137 1))
(assert (= p139 1))
(assert (= p149 1))
(assert (= p151 1))
(assert (= p157 1))
(assert (= p163 1))
(assert (= p167 1))
(assert (= p17 1))
(assert (= p173 1))
(assert (= p179 1))
(assert (= p181 1))
(assert (= p19 1))
(assert (= p191 1))
(assert (= p193 1))
(assert (= p197 1))
(assert (= p199 1))
(assert (= p2 1))
(assert (= p211 1))
(assert (= p223 1))
(assert (= p227 1))
(assert (= p229 1))
(assert (= p23 1))
(assert (= p233 1))
(assert (= p239 1))
(assert (= p241 1))
(assert (= p251 1))
(assert (= p257 1))
(assert (= p263 1))
(assert (= p269 1))
(assert (= p271 1))
(assert (= p277 1))
(assert (= p281 1))
(assert (= p283 1))
(assert (= p29 1))
(assert (= p293 1))
(assert (= p3 1))
(assert (= p307 1))
(assert (= p31 1))
(assert (= p311 1))
(assert (= p313 1))
(assert (= p317 1))
(assert (= p331 1))
(assert (= p337 1))
(assert (= p347 1))
(assert (= p349 1))
(assert (= p353 1))
(assert (= p359 1))
(assert (= p367 1))
(assert (= p37 1))
(assert (= p373 1))
(assert (= p379 1))
(assert (= p383 1))
(assert (= p389 1))
(assert (= p397 1))
(assert (= p401 1))
(assert (= p409 1))
(assert (= p41 1))
(assert (= p419 1))
(assert (= p421 1))
(assert (= p43 1))
(assert (= p431 1))
(assert (= p433 1))
(assert (= p439 1))
(assert (= p443 1))
(assert (= p449 1))
(assert (= p457 1))
(assert (= p461 1))
(assert (= p463 1))
(assert (= p467 1))
(assert (= p47 1))
(assert (= p479 1))
(assert (= p487 1))
(assert (= p491 1))
(assert (= p499 1))
(assert (= p5 1))
(assert (= p53 1))
(assert (= p59 1))
(assert (= p61 1))
(assert (= p67 1))
(assert (= p7 1))
(assert (= p71 1))
(assert (= p73 1))
(assert (= p79 1))
(assert (= p83 1))
(assert (= p89 1))
(assert (= p97 1))
(assert (<= p10 1))
(assert (<= p100 1))
(assert (<= p102 1))
(assert (<= p104 1))
(assert (<= p105 1))
(assert (<= p106 1))
(assert (<= p108 1))
(assert (<= p110 1))
(assert (<= p111 1))
(assert (<= p112 1))
(assert (<= p114 1))
(assert (<= p115 1))
(assert (<= p116 1))
(assert (<= p117 1))
(assert (<= p118 1))
(assert (<= p119 1))
(assert (<= p12 1))
(assert (<= p120 1))
(assert (<= p121 1))
(assert (<= p122 1))
(assert (<= p123 1))
(assert (<= p124 1))
(assert (<= p125 1))
(assert (<= p126 1))
(assert (<= p128 1))
(assert (<= p129 1))
(assert (<= p130 1))
(assert (<= p132 1))
(assert (<= p133 1))
(assert (<= p134 1))
(assert (<= p135 1))
(assert (<= p136 1))
(assert (<= p138 1))
(assert (<= p14 1))
(assert (<= p140 1))
(assert (<= p141 1))
(assert (<= p142 1))
(assert (<= p143 1))
(assert (<= p144 1))
(assert (<= p145 1))
(assert (<= p146 1))
(assert (<= p147 1))
(assert (<= p148 1))
(assert (<= p15 1))
(assert (<= p150 1))
(assert (<= p152 1))
(assert (<= p153 1))
(assert (<= p154 1))
(assert (<= p155 1))
(assert (<= p156 1))
(assert (<= p158 1))
(assert (<= p159 1))
(assert (<= p16 1))
(assert (<= p160 1))
(assert (<= p161 1))
(assert (<= p162 1))
(assert (<= p164 1))
(assert (<= p165 1))
(assert (<= p166 1))
(assert (<= p168 1))
(assert (<= p169 1))
(assert (<= p170 1))
(assert (<= p171 1))
(assert (<= p172 1))
(assert (<= p174 1))
(assert (<= p175 1))
(assert (<= p176 1))
(assert (<= p177 1))
(assert (<= p178 1))
(assert (<= p18 1))
(assert (<= p180 1))
(assert (<= p182 1))
(assert (<= p183 1))
(assert (<= p184 1))
(assert (<= p185 1))
(assert (<= p186 1))
(assert (<= p187 1))
(assert (<= p188 1))
(assert (<= p189 1))
(assert (<= p190 1))
(assert (<= p192 1))
(assert (<= p194 1))
(assert (<= p195 1))
(assert (<= p196 1))
(assert (<= p198 1))
(assert (<= p20 1))
(assert (<= p200 1))
(assert (<= p201 1))
(assert (<= p202 1))
(assert (<= p203 1))
(assert (<= p204 1))
(assert (<= p205 1))
(assert (<= p206 1))
(assert (<= p207 1))
(assert (<= p208 1))
(assert (<= p209 1))
(assert (<= p21 1))
(assert (<= p210 1))
(assert (<= p212 1))
(assert (<= p213 1))
(assert (<= p214 1))
(assert (<= p215 1))
(assert (<= p216 1))
(assert (<= p217 1))
(assert (<= p218 1))
(assert (<= p219 1))
(assert (<= p22 1))
(assert (<= p220 1))
(assert (<= p221 1))
(assert (<= p222 1))
(assert (<= p224 1))
(assert (<= p225 1))
(assert (<= p226 1))
(assert (<= p228 1))
(assert (<= p230 1))
(assert (<= p231 1))
(assert (<= p232 1))
(assert (<= p234 1))
(assert (<= p235 1))
(assert (<= p236 1))
(assert (<= p237 1))
(assert (<= p238 1))
(assert (<= p24 1))
(assert (<= p240 1))
(assert (<= p242 1))
(assert (<= p243 1))
(assert (<= p244 1))
(assert (<= p245 1))
(assert (<= p246 1))
(assert (<= p247 1))
(assert (<= p248 1))
(assert (<= p249 1))
(assert (<= p25 1))
(assert (<= p250 1))
(assert (<= p252 1))
(assert (<= p253 1))
(assert (<= p254 1))
(assert (<= p255 1))
(assert (<= p256 1))
(assert (<= p258 1))
(assert (<= p259 1))
(assert (<= p26 1))
(assert (<= p260 1))
(assert (<= p261 1))
(assert (<= p262 1))
(assert (<= p264 1))
(assert (<= p265 1))
(assert (<= p266 1))
(assert (<= p267 1))
(assert (<= p268 1))
(assert (<= p27 1))
(assert (<= p270 1))
(assert (<= p272 1))
(assert (<= p273 1))
(assert (<= p274 1))
(assert (<= p275 1))
(assert (<= p276 1))
(assert (<= p278 1))
(assert (<= p279 1))
(assert (<= p28 1))
(assert (<= p280 1))
(assert (<= p282 1))
(assert (<= p284 1))
(assert (<= p285 1))
(assert (<= p286 1))
(assert (<= p287 1))
(assert (<= p288 1))
(assert (<= p289 1))
(assert (<= p290 1))
(assert (<= p291 1))
(assert (<= p292 1))
(assert (<= p294 1))
(assert (<= p295 1))
(assert (<= p296 1))
(assert (<= p297 1))
(assert (<= p298 1))
(assert (<= p299 1))
(assert (<= p30 1))
(assert (<= p300 1))
(assert (<= p301 1))
(assert (<= p302 1))
(assert (<= p303 1))
(assert (<= p304 1))
(assert (<= p305 1))
(assert (<= p306 1))
(assert (<= p308 1))
(assert (<= p309 1))
(assert (<= p310 1))
(assert (<= p312 1))
(assert (<= p314 1))
(assert (<= p315 1))
(assert (<= p316 1))
(assert (<= p318 1))
(assert (<= p319 1))
(assert (<= p32 1))
(assert (<= p320 1))
(assert (<= p321 1))
(assert (<= p322 1))
(assert (<= p323 1))
(assert (<= p324 1))
(assert (<= p325 1))
(assert (<= p326 1))
(assert (<= p327 1))
(assert (<= p328 1))
(assert (<= p329 1))
(assert (<= p33 1))
(assert (<= p330 1))
(assert (<= p332 1))
(assert (<= p333 1))
(assert (<= p334 1))
(assert (<= p335 1))
(assert (<= p336 1))
(assert (<= p338 1))
(assert (<= p339 1))
(assert (<= p34 1))
(assert (<= p340 1))
(assert (<= p341 1))
(assert (<= p342 1))
(assert (<= p343 1))
(assert (<= p344 1))
(assert (<= p345 1))
(assert (<= p346 1))
(assert (<= p348 1))
(assert (<= p35 1))
(assert (<= p350 1))
(assert (<= p351 1))
(assert (<= p352 1))
(assert (<= p354 1))
(assert (<= p355 1))
(assert (<= p356 1))
(assert (<= p357 1))
(assert (<= p358 1))
(assert (<= p36 1))
(assert (<= p360 1))
(assert (<= p361 1))
(assert (<= p362 1))
(assert (<= p363 1))
(assert (<= p364 1))
(assert (<= p365 1))
(assert (<= p366 1))
(assert (<= p368 1))
(assert (<= p369 1))
(assert (<= p370 1))
(assert (<= p371 1))
(assert (<= p372 1))
(assert (<= p374 1))
(assert (<= p375 1))
(assert (<= p376 1))
(assert (<= p377 1))
(assert (<= p378 1))
(assert (<= p38 1))
(assert (<= p380 1))
(assert (<= p381 1))
(assert (<= p382 1))
(assert (<= p384 1))
(assert (<= p385 1))
(assert (<= p386 1))
(assert (<= p387 1))
(assert (<= p388 1))
(assert (<= p39 1))
(assert (<= p390 1))
(assert (<= p391 1))
(assert (<= p392 1))
(assert (<= p393 1))
(assert (<= p394 1))
(assert (<= p395 1))
(assert (<= p396 1))
(assert (<= p398 1))
(assert (<= p399 1))
(assert (<= p4 1))
(assert (<= p40 1))
(assert (<= p400 1))
(assert (<= p402 1))
(assert (<= p403 1))
(assert (<= p404 1))
(assert (<= p405 1))
(assert (<= p406 1))
(assert (<= p407 1))
(assert (<= p408 1))
(assert (<= p410 1))
(assert (<= p411 1))
(assert (<= p412 1))
(assert (<= p413 1))
(assert (<= p414 1))
(assert (<= p415 1))
(assert (<= p416 1))
(assert (<= p417 1))
(assert (<= p418 1))
(assert (<= p42 1))
(assert (<= p420 1))
(assert (<= p422 1))
(assert (<= p423 1))
(assert (<= p424 1))
(assert (<= p425 1))
(assert (<= p426 1))
(assert (<= p427 1))
(assert (<= p428 1))
(assert (<= p429 1))
(assert (<= p430 1))
(assert (<= p432 1))
(assert (<= p434 1))
(assert (<= p435 1))
(assert (<= p436 1))
(assert (<= p437 1))
(assert (<= p438 1))
(assert (<= p44 1))
(assert (<= p440 1))
(assert (<= p441 1))
(assert (<= p442 1))
(assert (<= p444 1))
(assert (<= p445 1))
(assert (<= p446 1))
(assert (<= p447 1))
(assert (<= p448 1))
(assert (<= p45 1))
(assert (<= p450 1))
(assert (<= p451 1))
(assert (<= p452 1))
(assert (<= p453 1))
(assert (<= p454 1))
(assert (<= p455 1))
(assert (<= p456 1))
(assert (<= p458 1))
(assert (<= p459 1))
(assert (<= p46 1))
(assert (<= p460 1))
(assert (<= p462 1))
(assert (<= p464 1))
(assert (<= p465 1))
(assert (<= p466 1))
(assert (<= p468 1))
(assert (<= p469 1))
(assert (<= p470 1))
(assert (<= p471 1))
(assert (<= p472 1))
(assert (<= p473 1))
(assert (<= p474 1))
(assert (<= p475 1))
(assert (<= p476 1))
(assert (<= p477 1))
(assert (<= p478 1))
(assert (<= p48 1))
(assert (<= p480 1))
(assert (<= p481 1))
(assert (<= p482 1))
(assert (<= p483 1))
(assert (<= p484 1))
(assert (<= p485 1))
(assert (<= p486 1))
(assert (<= p488 1))
(assert (<= p489 1))
(assert (<= p49 1))
(assert (<= p490 1))
(assert (<= p492 1))
(assert (<= p493 1))
(assert (<= p494 1))
(assert (<= p495 1))
(assert (<= p496 1))
(assert (<= p497 1))
(assert (<= p498 1))
(assert (<= p50 1))
(assert (<= p500 1))
(assert (<= p51 1))
(assert (<= p52 1))
(assert (<= p54 1))
(assert (<= p55 1))
(assert (<= p56 1))
(assert (<= p57 1))
(assert (<= p58 1))
(assert (<= p6 1))
(assert (<= p60 1))
(assert (<= p62 1))
(assert (<= p63 1))
(assert (<= p64 1))
(assert (<= p65 1))
(assert (<= p66 1))
(assert (<= p68 1))
(assert (<= p69 1))
(assert (<= p70 1))
(assert (<= p72 1))
(assert (<= p74 1))
(assert (<= p75 1))
(assert (<= p76 1))
(assert (<= p77 1))
(assert (<= p78 1))
(assert (<= p8 1))
(assert (<= p80 1))
(assert (<= p81 1))
(assert (<= p82 1))
(assert (<= p84 1))
(assert (<= p85 1))
(assert (<= p86 1))
(assert (<= p87 1))
(assert (<= p88 1))
(assert (<= p9 1))
(assert (<= p90 1))
(assert (<= p91 1))
(assert (<= p92 1))
(assert (<= p93 1))
(assert (<= p94 1))
(assert (<= p95 1))
(assert (<= p96 1))
(assert (<= p98 1))
(assert (<= p99 1))

(assert (not (or (and (and (or (and (>= p456 1)(>= p228 1))(and (>= p20 1)(>= p5 1)))(and (and (>= p462 1)(>= p231 1))(and (>= p60 1)(>= p4 1))))(or (and (and (>= p294 1)(>= p49 1))(and (>= p240 1)(>= p30 1)))(not (and (>= p88 1)(>= p2 1)))))(or (and (>= p280 1)(>= p35 1))(and (and (>= p45 1)(>= p3 1))(and (and (>= p437 1)(>= p19 1))(and (>= p255 1)(>= p51 1))))))))

(check-sat)
(exit)
